(set-info :smt-lib-version 2.6)
(set-logic QF_FP)
(set-info :source |
Generated by the tool Ultimate Automizer [1,2] which implements
an automata theoretic approach [3] to software verification.

This SMT script belongs to a set of SMT scripts that was generated by
applying Ultimate Automizer to benchmarks [4] from the SV-COMP 2023 [5,6].
This script may not contain all SMT commands that Ultimate Automizer
issued. In order to meet the restrictions for SMT-COMP benchmarks 
we dropped the commands for getting values (resp. models), 
unsatisfiable cores, and interpolants.

2023-03-21, Matthias Heizmann (heizmann@informatik.uni-freiburg.de)

[1] https://ultimate.informatik.uni-freiburg.de/automizer/
[2] Matthias Heizmann, Max Barth, Daniel Dietsch, Leonard Fichtner,
     Jochen Hoenicke, Dominik Klumpp, Mehdi Naouar, Tanja Schindler,
     Frank Schüssele, Andreas Podelski: Ultimate Automizer and the
     CommuHash Normal Form (Competition Contribution). TACAS 2023
[3] Matthias Heizmann, Jochen Hoenicke, Andreas Podelski: Software Model
     Checking for People Who Love Automata. CAV 2013
[4] https://github.com/sosy-lab/sv-benchmarks
[5] Dirk Beyer: Competition on Software Verification and
     Witness Validation: SV-COMP 2023.  TACAS 2023
[6] https://sv-comp.sosy-lab.org/2023/
|)
(set-info :license "https://creativecommons.org/licenses/by/4.0/")
(set-info :category "industrial")
(set-info :status unknown)
(declare-fun v_currentRoundingMode_18_const_1497110600 () RoundingMode)
(declare-fun |v_ULTIMATE.start___ieee754_pow_~t~1#1_12_const_-296805887| () (_ FloatingPoint 11 53))
(declare-fun v_~P5_pow~0_2_const_-255136427 () (_ FloatingPoint 11 53))
(declare-fun v_~P4_pow~0_2_const_-1668972966 () (_ FloatingPoint 11 53))
(declare-fun v_~P3_pow~0_2_const_188845915 () (_ FloatingPoint 11 53))
(declare-fun v_~P2_pow~0_2_const_-1222895528 () (_ FloatingPoint 11 53))
(declare-fun v_~P1_pow~0_2_const_601401689 () (_ FloatingPoint 11 53))
(declare-fun |v_ULTIMATE.start___ieee754_pow_~u~0#1_6_const_-381032794| () (_ FloatingPoint 11 53))
(declare-fun |v_ULTIMATE.start___ieee754_pow_~v~0#1_6_const_-1569740319| () (_ FloatingPoint 11 53))
(declare-fun |v_ULTIMATE.start___ieee754_pow_~t1~1#1_8_const_1163115541| () (_ FloatingPoint 11 53))
(declare-fun |v_ULTIMATE.start___ieee754_pow_~t~1#1_13_const_-296805888| () (_ FloatingPoint 11 53))
(declare-fun |v_ULTIMATE.start___ieee754_pow_~p_h~0#1_15_const_-1013343834| () (_ FloatingPoint 11 53))
(declare-fun |v_ULTIMATE.start___ieee754_pow_~p_l~0#1_10_const_572441903| () (_ FloatingPoint 11 53))
(declare-fun v_~lg2_pow~0_2_const_-1885798195 () (_ FloatingPoint 11 53))
(declare-fun v_~lg2_l_pow~0_2_const_-1872253152 () (_ FloatingPoint 11 53))
(declare-fun |v_ULTIMATE.start___ieee754_pow_~r~1#1_6_const_-1880859548| () (_ FloatingPoint 11 53))
(declare-fun v_~one_pow~0_8_const_-2117282280 () (_ FloatingPoint 11 53))
(declare-fun |v_ULTIMATE.start___ieee754_pow_~z~1#1_9_const_-164190599| () (_ FloatingPoint 11 53))
(declare-fun v_~two_pow~0_2_const_1334062072 () (_ FloatingPoint 11 53))
(declare-fun |v_ULTIMATE.start___ieee754_pow_~w~0#1_3_const_-1753912025| () (_ FloatingPoint 11 53))
(declare-fun v_~lg2_h_pow~0_2_const_-1015715036 () (_ FloatingPoint 11 53))
(assert (let ((.cse0 (fp.add v_currentRoundingMode_18_const_1497110600 |v_ULTIMATE.start___ieee754_pow_~u~0#1_6_const_-381032794| |v_ULTIMATE.start___ieee754_pow_~v~0#1_6_const_-1569740319|))) (and (= |v_ULTIMATE.start___ieee754_pow_~v~0#1_6_const_-1569740319| (fp.add v_currentRoundingMode_18_const_1497110600 (fp.mul v_currentRoundingMode_18_const_1497110600 (fp.sub v_currentRoundingMode_18_const_1497110600 |v_ULTIMATE.start___ieee754_pow_~p_l~0#1_10_const_572441903| (fp.sub v_currentRoundingMode_18_const_1497110600 |v_ULTIMATE.start___ieee754_pow_~t~1#1_13_const_-296805888| |v_ULTIMATE.start___ieee754_pow_~p_h~0#1_15_const_-1013343834|)) v_~lg2_pow~0_2_const_-1885798195) (fp.mul v_currentRoundingMode_18_const_1497110600 |v_ULTIMATE.start___ieee754_pow_~t~1#1_13_const_-296805888| v_~lg2_l_pow~0_2_const_-1872253152))) (= |v_ULTIMATE.start___ieee754_pow_~z~1#1_9_const_-164190599| (fp.sub v_currentRoundingMode_18_const_1497110600 v_~one_pow~0_8_const_-2117282280 (fp.sub v_currentRoundingMode_18_const_1497110600 |v_ULTIMATE.start___ieee754_pow_~r~1#1_6_const_-1880859548| .cse0))) (= (fp.mul v_currentRoundingMode_18_const_1497110600 .cse0 .cse0) |v_ULTIMATE.start___ieee754_pow_~t~1#1_12_const_-296805887|) (= |v_ULTIMATE.start___ieee754_pow_~r~1#1_6_const_-1880859548| (fp.sub v_currentRoundingMode_18_const_1497110600 (fp.div v_currentRoundingMode_18_const_1497110600 (fp.mul v_currentRoundingMode_18_const_1497110600 .cse0 |v_ULTIMATE.start___ieee754_pow_~t1~1#1_8_const_1163115541|) (fp.sub v_currentRoundingMode_18_const_1497110600 |v_ULTIMATE.start___ieee754_pow_~t1~1#1_8_const_1163115541| v_~two_pow~0_2_const_1334062072)) (fp.add v_currentRoundingMode_18_const_1497110600 |v_ULTIMATE.start___ieee754_pow_~w~0#1_3_const_-1753912025| (fp.mul v_currentRoundingMode_18_const_1497110600 .cse0 |v_ULTIMATE.start___ieee754_pow_~w~0#1_3_const_-1753912025|)))) (= |v_ULTIMATE.start___ieee754_pow_~u~0#1_6_const_-381032794| (fp.mul v_currentRoundingMode_18_const_1497110600 |v_ULTIMATE.start___ieee754_pow_~t~1#1_13_const_-296805888| v_~lg2_h_pow~0_2_const_-1015715036)) (= |v_ULTIMATE.start___ieee754_pow_~w~0#1_3_const_-1753912025| (fp.sub v_currentRoundingMode_18_const_1497110600 |v_ULTIMATE.start___ieee754_pow_~v~0#1_6_const_-1569740319| (fp.sub v_currentRoundingMode_18_const_1497110600 .cse0 |v_ULTIMATE.start___ieee754_pow_~u~0#1_6_const_-381032794|))) (= |v_ULTIMATE.start___ieee754_pow_~t1~1#1_8_const_1163115541| (fp.sub v_currentRoundingMode_18_const_1497110600 .cse0 (fp.mul v_currentRoundingMode_18_const_1497110600 |v_ULTIMATE.start___ieee754_pow_~t~1#1_12_const_-296805887| (fp.add v_currentRoundingMode_18_const_1497110600 v_~P1_pow~0_2_const_601401689 (fp.mul v_currentRoundingMode_18_const_1497110600 |v_ULTIMATE.start___ieee754_pow_~t~1#1_12_const_-296805887| (fp.add v_currentRoundingMode_18_const_1497110600 v_~P2_pow~0_2_const_-1222895528 (fp.mul v_currentRoundingMode_18_const_1497110600 |v_ULTIMATE.start___ieee754_pow_~t~1#1_12_const_-296805887| (fp.add v_currentRoundingMode_18_const_1497110600 v_~P3_pow~0_2_const_188845915 (fp.mul v_currentRoundingMode_18_const_1497110600 |v_ULTIMATE.start___ieee754_pow_~t~1#1_12_const_-296805887| (fp.add v_currentRoundingMode_18_const_1497110600 v_~P4_pow~0_2_const_-1668972966 (fp.mul v_currentRoundingMode_18_const_1497110600 |v_ULTIMATE.start___ieee754_pow_~t~1#1_12_const_-296805887| v_~P5_pow~0_2_const_-255136427))))))))))))))
(check-sat)
(exit)
